50, 953
11, 16
26, 31
6, 11
12, 22
24, 44
6, 11
28, 33
56, 66
112, 132
56, 66
9, 14
47, 52
94, 104
28, 33
56, 66
112, 132
34, 39
34, 39
4, 9
8, 18
16, 36
4, 9
25, 30
25, 30
10, 15
20, 30
40, 60
30, 45
33, 38
66, 76
66, 76
50, 55
100, 110
50, 55
10, 15
20, 30
40, 60
10, 15
14, 19
28, 38
14, 19
37, 42
74, 84
148, 168
111, 126
14, 19
28, 38
15, 20
30, 40
15, 20
